Route #1: 1 41 36 55 5 30 22 11 25 1
Route #2: 1 47 24 28 49 34 14 6 17 50 46 4 1
Route #3: 1 32 7 12 16 54 26 1
Route #4: 1 53 51 31 3 43 23 38 40 2 1
Route #5: 1 8 33 44 48 21 15 56 1
Route #6: 1 29 9 13 39 37 20 35 52 1
Route #7: 1 42 18 27 19 57 10 45 1
cost 1349
